

******************************************************************************
This program contains Ipopt, a library for large-scale nonlinear optimization.
 Ipopt is released as open source code under the Eclipse Public License (EPL).
         For more information visit http://projects.coin-or.org/Ipopt
******************************************************************************

This is Ipopt version 3.12.8, running with linear solver mumps.
NOTE: Other linear solvers might be more efficient (see Ipopt documentation).

Number of nonzeros in equality constraint Jacobian...:        0
Number of nonzeros in inequality constraint Jacobian.:       20
Number of nonzeros in Lagrangian Hessian.............:        6

Total number of variables............................:        6
                     variables with only lower bounds:        0
                variables with lower and upper bounds:        6
                     variables with only upper bounds:        0
Total number of equality constraints.................:        0
Total number of inequality constraints...............:        4
        inequality constraints with only lower bounds:        4
   inequality constraints with lower and upper bounds:        0
        inequality constraints with only upper bounds:        0

iter    objective    inf_pr   inf_du lg(mu)  ||d||  lg(rg) alpha_du alpha_pr  ls
   0  9.7445954e-02 4.30e+00 2.58e+01  -1.0 0.00e+00    -  0.00e+00 0.00e+00   0
   1  2.2325298e-01 3.99e+00 9.16e+01  -1.0 2.13e+00    -  1.60e-01 4.49e-02h  1
   2  1.0117780e+00 0.00e+00 4.08e+02  -1.0 6.40e-01    -  1.96e-01 1.00e+00f  1
   3  8.8061790e-01 0.00e+00 3.18e+01  -1.0 3.28e-03   4.0 1.00e+00 1.00e+00h  1
   4  7.6293748e-01 0.00e+00 5.41e+01  -1.0 3.94e-01    -  6.84e-01 3.80e-01f  2
   5  4.2618822e-01 0.00e+00 1.47e+01  -1.0 3.48e-01    -  6.30e-01 6.61e-01f  1
   6  6.2452189e-01 0.00e+00 4.74e+00  -1.0 7.69e-01    -  8.25e-01 1.00e+00f  1
   7  4.9555828e-01 0.00e+00 7.26e-01  -1.0 4.20e-01    -  1.00e+00 1.00e+00h  1
   8  1.5568522e-01 0.00e+00 9.54e-01  -1.7 1.75e-01    -  1.00e+00 1.00e+00f  1
   9  1.3965464e-01 0.00e+00 1.69e-02  -1.7 9.86e-02    -  1.00e+00 1.00e+00h  1
iter    objective    inf_pr   inf_du lg(mu)  ||d||  lg(rg) alpha_du alpha_pr  ls
  10  3.1409361e-02 0.00e+00 1.27e+00  -3.8 2.57e-01    -  6.86e-01 1.00e+00f  1
  11  1.6639075e-02 1.99e-02 4.65e-01  -3.8 4.18e-01    -  1.00e+00 7.21e-01h  1
  12  1.6579890e-02 0.00e+00 1.26e-03  -3.8 4.54e-03    -  1.00e+00 1.00e+00h  1
  13  1.5627596e-02 9.78e-06 8.27e-06  -5.7 4.59e-03    -  1.00e+00 9.99e-01h  1
  14  1.5617733e-02 0.00e+00 1.78e-09  -8.6 6.25e-06    -  1.00e+00 1.00e+00h  1

Number of Iterations....: 14

                                   (scaled)                 (unscaled)
Objective...............:   1.5617733122201867e-02    1.5617733122201867e-02
Dual infeasibility......:   1.7831223598086931e-09    1.7831223598086931e-09
Constraint violation....:   0.0000000000000000e+00    0.0000000000000000e+00
Complementarity.........:   2.5240558857051647e-09    2.5240558857051647e-09
Overall NLP error.......:   2.5240558857051647e-09    2.5240558857051647e-09


Number of objective function evaluations             = 18
Number of objective gradient evaluations             = 15
Number of equality constraint evaluations            = 0
Number of inequality constraint evaluations          = 18
Number of equality constraint Jacobian evaluations   = 0
Number of inequality constraint Jacobian evaluations = 15
Number of Lagrangian Hessian evaluations             = 14
Total CPU secs in IPOPT (w/o function evaluations)   =      0.001
Total CPU secs in NLP function evaluations           =      0.000

EXIT: Optimal Solution Found.
 
Ipopt 3.12.8: Optimal Solution Found
